[runlim] version:		1.10
[runlim] time limit:		311040000 seconds
[runlim] real time limit:	1800 seconds
[runlim] space limit:		30000 MB
[runlim] argv[0]:		python
[runlim] argv[1]:		FE.py
[runlim] argv[2]:		X-can__715.mtx.rnd
[runlim] start:			Wed Oct  9 05:57:08 2024
[runlim] main pid:		18052
[runlim] log captured:
[runlim] sample:		10.0 time, 10.6 real, 1084.3 MB
[runlim] sample:		20.0 time, 20.6 real, 2070.0 MB
[runlim] sample:		30.0 time, 30.6 real, 3010.0 MB
[runlim] sample:		40.0 time, 40.6 real, 4069.1 MB
[runlim] sample:		50.0 time, 50.6 real, 5060.1 MB
[runlim] sample:		60.0 time, 60.6 real, 5952.7 MB
[runlim] sample:		70.0 time, 70.6 real, 6757.9 MB
[runlim] sample:		80.0 time, 80.6 real, 7941.9 MB
[runlim] sample:		90.0 time, 90.6 real, 9097.9 MB
[runlim] sample:		100.0 time, 100.6 real, 10239.9 MB
[runlim] sample:		110.0 time, 110.6 real, 11383.9 MB
142
112
Version identifier: 20.1.0.0 | 2020-11-10 | 9bedb6d68
CPXPARAM_Simplex_PGradient                       4
CPXPARAM_Read_DataCheck                          1
CPXPARAM_MIP_Strategy_File                       3
CPXPARAM_TimeLimit                               1800
CPXPARAM_WorkMem                                 122880
[runlim] sample:		120.0 time, 120.6 real, 11998.1 MB
[runlim] sample:		130.0 time, 130.6 real, 11998.1 MB
[runlim] sample:		140.0 time, 140.6 real, 11998.1 MB
[runlim] sample:		150.0 time, 150.6 real, 16617.6 MB
[runlim] sample:		160.0 time, 160.6 real, 16617.6 MB
[runlim] sample:		170.0 time, 170.6 real, 16617.6 MB
Presolve has eliminated 358 rows and 358 columns...
[runlim] sample:		180.0 time, 180.6 real, 16617.6 MB
[runlim] sample:		190.0 time, 190.6 real, 16617.6 MB
[runlim] sample:		200.0 time, 200.6 real, 16617.6 MB
[runlim] sample:		210.0 time, 210.6 real, 16617.6 MB
Presolve has eliminated 1593 rows and 358 columns...
[runlim] sample:		220.0 time, 220.6 real, 16619.8 MB
Tried aggregator 1 time.
[runlim] sample:		230.0 time, 230.6 real, 17507.6 MB
[runlim] sample:		246.1 time, 240.6 real, 16618.4 MB
[runlim] sample:		256.1 time, 250.6 real, 16618.4 MB
[runlim] sample:		266.1 time, 260.6 real, 16618.4 MB
[runlim] sample:		276.1 time, 270.6 real, 16618.4 MB
[runlim] sample:		286.1 time, 280.6 real, 16618.4 MB
[runlim] sample:		296.1 time, 290.6 real, 16618.4 MB
[runlim] sample:		306.1 time, 300.6 real, 16618.4 MB
[runlim] sample:		316.1 time, 310.6 real, 16618.4 MB
[runlim] sample:		326.1 time, 320.6 real, 16618.4 MB
[runlim] sample:		336.1 time, 330.6 real, 16618.4 MB
[runlim] sample:		346.1 time, 340.6 real, 16618.4 MB
[runlim] sample:		356.1 time, 350.6 real, 16618.4 MB
[runlim] sample:		366.1 time, 360.6 real, 16618.4 MB
[runlim] sample:		376.1 time, 370.6 real, 16618.4 MB
[runlim] sample:		386.1 time, 380.6 real, 16618.4 MB
[runlim] sample:		396.1 time, 390.6 real, 16618.4 MB
[runlim] sample:		406.1 time, 400.6 real, 16618.4 MB
[runlim] sample:		416.1 time, 410.6 real, 16618.4 MB
[runlim] sample:		426.1 time, 420.6 real, 16618.4 MB
[runlim] sample:		436.1 time, 430.6 real, 16618.4 MB
[runlim] sample:		446.1 time, 440.6 real, 16618.4 MB
[runlim] sample:		456.1 time, 450.6 real, 16618.4 MB
[runlim] sample:		466.1 time, 460.6 real, 16618.4 MB
[runlim] sample:		476.1 time, 470.6 real, 16618.4 MB
[runlim] sample:		486.1 time, 480.6 real, 16618.4 MB
[runlim] sample:		496.1 time, 490.6 real, 16618.4 MB
[runlim] sample:		506.1 time, 500.6 real, 16618.4 MB
[runlim] sample:		516.1 time, 510.6 real, 16618.4 MB
Presolve has eliminated 1593 rows and 358 columns...
MIP Presolve eliminated 1593 rows and 358 columns.
MIP Presolve modified 1884624 coefficients.
Reduced MIP has 1780268 rows, 510867 columns, and 397980870 nonzeros.
Reduced MIP has 510867 binaries, 0 generals, 0 SOSs, and 0 indicators.
Presolve time = 371.83 sec. (496018.38 ticks)
[runlim] sample:		526.1 time, 520.6 real, 16555.1 MB
[runlim] sample:		536.1 time, 530.6 real, 17697.3 MB
[runlim] sample:		546.1 time, 540.6 real, 19718.0 MB
[runlim] end:			Wed Oct  9 06:06:15 2024
[runlim] status:		out of memory
[runlim] result:		3
[runlim] children:		0
[runlim] real:			547.65 seconds
[runlim] time:			553.09 seconds
[runlim] space:			30030.1 MB
[runlim] samples:		5470
